Optimal - objective value 0.00000000
      0 C0000000               0                       0
      1 C0000001              -2                       0
      2 C0000002              -2                       0
      3 C0000003           30649                       0
      4 C0000004          331561                       0
      5 C0000005          331561                       0
      6 C0000006              -5                       0
      7 C0000007              -3                       0
      8 C0000008               0                       0
      0 X0000000              -5                       0
      1 X0000001              -3                       0
      2 X0000002               0                       0
      3 X0000003               0                       1
